c FILE: homer.col
c Translated from Stanford GraphBase File: homer.gb
c Stanford GraphBase ID: book(?homer?,561,0,1,24,0,0,0)
p edge 561 3258
e 30 25
e 35 1
e 35 32
e 40 35
e 44 6
e 44 18
e 49 11
e 49 17
e 53 17
e 53 49
e 57 25
e 60 54
e 61 8
e 61 12
e 61 31
e 61 35
e 61 38
e 62 12
e 62 45
e 62 61
e 64 2
e 66 62
e 69 32
e 69 35
e 73 62
e 74 72
e 76 11
e 76 49
e 78 11
e 78 17
e 78 49
e 78 53
e 78 76
e 83 11
e 83 49
e 83 76
e 83 78
e 85 1
e 85 12
e 85 35
e 86 1
e 86 35
e 86 85
e 88 5
e 95 95
e 99 1
e 99 35
e 99 72
e 99 74
e 99 85
e 99 86
e 103 78
e 104 46
e 108 34
e 114 10
e 114 61
e 114 64
e 119 1
e 119 35
e 119 85
e 119 86
e 119 99
e 120 62
e 123 35
e 123 40
e 130 62
e 130 66
e 132 115
e 134 44
e 135 1
e 135 35
e 135 85
e 135 86
e 135 99
e 135 119
e 136 61
e 137 102
e 141 49
e 145 61
e 147 34
e 147 108
e 150 17
e 150 26
e 150 44
e 150 114
e 150 118
e 150 123
e 150 125
e 150 126
e 150 131
e 150 147
e 151 2
e 151 61
e 152 1
e 152 32
e 152 35
e 152 50
e 152 69
e 152 99
e 152 150
e 154 44
e 154 61
e 154 64
e 154 81
e 154 114
e 155 50
e 155 152
e 157 152
e 159 15
e 159 35
e 159 61
e 159 123
e 159 151
e 160 35
e 160 40
e 160 123
e 161 35
e 161 40
e 161 44
e 161 61
e 161 123
e 161 134
e 161 154
e 161 160
e 162 80
e 162 150
e 163 160
e 164 1
e 164 12
e 164 35
e 164 85
e 164 86
e 164 99
e 164 119
e 164 135
e 165 6
e 165 34
e 165 43
e 165 44
e 165 94
e 165 99
e 165 108
e 165 117
e 165 131
e 165 147
e 165 150
e 165 161
e 168 39
e 169 61
e 169 62
e 169 66
e 171 147
e 171 152
e 174 61
e 174 145
e 177 12
e 177 85
e 177 164
e 178 1
e 178 12
e 178 35
e 178 85
e 178 86
e 178 99
e 178 119
e 178 135
e 178 164
e 178 177
e 180 152
e 183 50
e 183 152
e 183 155
e 184 19
e 184 39
e 184 168
e 185 125
e 185 150
e 186 61
e 188 152
e 189 64
e 189 114
e 192 46
e 192 104
e 196 35
e 196 152
e 198 154
e 198 172
e 201 150
e 202 14
e 202 23
e 202 37
e 202 41
e 202 50
e 202 61
e 202 89
e 202 95
e 202 108
e 202 110
e 202 117
e 202 121
e 202 124
e 202 132
e 202 154
e 202 165
e 202 166
e 202 193
e 202 195
e 202 196
e 203 42
e 203 50
e 203 75
e 203 87
e 203 114
e 203 152
e 203 154
e 203 155
e 203 183
e 204 17
e 204 49
e 204 53
e 204 78
e 207 17
e 207 49
e 207 53
e 207 78
e 207 152
e 207 202
e 207 204
e 208 150
e 208 196
e 209 19
e 211 2
e 211 61
e 211 134
e 211 150
e 211 151
e 211 159
e 211 161
e 212 59
e 215 156
e 217 165
e 218 12
e 218 44
e 218 46
e 218 61
e 218 159
e 219 11
e 219 49
e 219 76
e 219 78
e 219 83
e 222 30
e 222 32
e 222 35
e 222 69
e 222 152
e 222 171
e 223 165
e 225 211
e 226 202
e 227 25
e 227 57
e 228 114
e 230 165
e 230 202
e 231 126
e 231 150
e 234 38
e 235 78
e 239 27
e 240 179
e 242 150
e 243 15
e 244 2
e 244 5
e 244 6
e 244 15
e 244 17
e 244 35
e 244 44
e 244 54
e 244 60
e 244 61
e 244 64
e 244 88
e 244 95
e 244 101
e 244 102
e 244 105
e 244 107
e 244 108
e 244 117
e 244 123
e 244 132
e 244 137
e 244 138
e 244 150
e 244 161
e 244 165
e 244 196
e 244 202
e 244 218
e 244 230
e 245 165
e 247 25
e 247 30
e 247 203
e 249 61
e 251 167
e 253 125
e 253 185
e 254 35
e 255 207
e 255 244
e 258 150
e 259 2
e 259 12
e 259 61
e 259 114
e 259 128
e 259 134
e 259 150
e 259 151
e 259 154
e 259 161
e 259 202
e 259 203
e 259 208
e 259 211
e 259 218
e 259 244
e 260 112
e 261 35
e 261 196
e 262 7
e 262 17
e 262 49
e 262 53
e 262 78
e 262 204
e 262 207
e 263 64
e 263 139
e 264 115
e 264 127
e 264 132
e 264 202
e 264 244
e 265 203
e 267 42
e 267 104
e 267 114
e 267 152
e 267 154
e 267 171
e 267 203
e 267 222
e 267 244
e 267 259
e 268 233
e 269 140
e 273 244
e 274 79
e 274 98
e 275 202
e 276 2
e 276 24
e 276 44
e 276 61
e 276 62
e 276 66
e 276 150
e 276 152
e 276 159
e 276 169
e 276 186
e 276 211
e 276 218
e 276 244
e 276 246
e 276 259
e 277 64
e 277 114
e 277 189
e 277 202
e 279 202
e 280 58
e 281 61
e 281 111
e 281 154
e 281 218
e 281 256
e 281 276
e 283 150
e 285 5
e 285 25
e 285 44
e 285 51
e 285 55
e 285 61
e 285 64
e 285 87
e 285 114
e 285 117
e 285 123
e 285 144
e 285 147
e 285 150
e 285 154
e 285 161
e 285 165
e 285 189
e 285 202
e 285 203
e 285 213
e 285 218
e 285 220
e 285 224
e 285 244
e 285 247
e 285 250
e 285 252
e 285 259
e 285 277
e 285 278
e 286 61
e 286 62
e 286 66
e 286 170
e 286 218
e 286 239
e 286 259
e 286 274
e 287 154
e 287 281
e 288 203
e 290 154
e 291 35
e 291 244
e 291 261
e 292 25
e 292 57
e 292 227
e 294 202
e 295 5
e 295 285
e 296 285
e 297 34
e 297 48
e 297 72
e 297 108
e 297 147
e 297 161
e 297 165
e 297 203
e 297 259
e 297 285
e 298 114
e 299 74
e 300 32
e 300 35
e 300 69
e 300 152
e 300 222
e 301 150
e 302 165
e 303 221
e 304 165
e 306 187
e 306 202
e 307 211
e 308 131
e 308 150
e 308 165
e 309 152
e 310 10
e 310 61
e 310 154
e 311 49
e 312 33
e 313 126
e 313 231
e 314 64
e 314 114
e 314 189
e 314 277
e 314 285
e 316 61
e 316 244
e 317 10
e 317 176
e 317 310
e 318 62
e 319 61
e 319 218
e 319 286
e 320 77
e 321 10
e 321 61
e 321 67
e 321 100
e 321 176
e 321 184
e 321 310
e 321 317
e 322 297
e 323 35
e 326 150
e 327 35
e 327 261
e 328 285
e 329 44
e 329 165
e 329 259
e 330 46
e 330 104
e 330 192
e 330 203
e 330 218
e 330 324
e 331 150
e 331 242
e 332 139
e 332 263
e 333 202
e 334 277
e 335 1
e 335 35
e 335 85
e 335 86
e 335 99
e 335 119
e 335 135
e 335 164
e 335 178
e 336 17
e 336 49
e 336 53
e 336 78
e 336 204
e 336 207
e 336 262
e 337 202
e 340 35
e 340 40
e 340 74
e 340 96
e 340 123
e 340 160
e 340 161
e 340 299
e 341 35
e 341 40
e 342 49
e 344 211
e 344 321
e 345 44
e 345 55
e 345 154
e 345 161
e 345 165
e 345 220
e 345 262
e 345 271
e 345 285
e 346 165
e 348 50
e 348 152
e 348 155
e 348 183
e 348 203
e 349 11
e 349 49
e 349 76
e 349 78
e 349 83
e 349 219
e 350 150
e 350 165
e 351 19
e 352 165
e 353 64
e 353 114
e 353 189
e 353 277
e 353 285
e 353 314
e 355 297
e 356 15
e 356 95
e 356 244
e 357 147
e 357 152
e 357 171
e 357 211
e 357 222
e 357 267
e 359 300
e 360 165
e 361 21
e 361 22
e 361 25
e 361 46
e 361 61
e 361 114
e 361 129
e 361 154
e 361 191
e 361 200
e 361 205
e 361 218
e 361 220
e 361 229
e 361 236
e 361 237
e 361 241
e 361 247
e 361 248
e 361 254
e 361 266
e 361 284
e 361 285
e 361 330
e 361 345
e 361 347
e 362 48
e 362 297
e 363 102
e 363 137
e 363 244
e 364 259
e 365 61
e 365 95
e 365 132
e 365 202
e 365 218
e 365 244
e 365 276
e 366 162
e 367 34
e 367 46
e 367 108
e 367 112
e 367 147
e 367 150
e 367 165
e 367 218
e 367 285
e 367 297
e 367 330
e 367 361
e 368 32
e 368 35
e 368 69
e 368 152
e 368 222
e 368 259
e 368 267
e 368 300
e 369 32
e 369 35
e 369 69
e 369 152
e 369 222
e 369 300
e 369 368
e 370 244
e 372 165
e 372 329
e 373 202
e 374 133
e 375 315
e 376 29
e 376 150
e 376 162
e 377 162
e 378 34
e 378 108
e 378 147
e 378 165
e 378 171
e 378 297
e 378 357
e 378 367
e 379 244
e 380 108
e 380 123
e 380 202
e 380 207
e 380 244
e 380 285
e 381 64
e 381 114
e 381 189
e 381 277
e 381 285
e 381 314
e 381 353
e 382 244
e 383 165
e 384 19
e 384 209
e 385 147
e 385 171
e 385 211
e 385 357
e 385 378
e 386 132
e 386 365
e 387 63
e 387 64
e 387 114
e 387 189
e 387 277
e 387 285
e 387 314
e 387 353
e 387 381
e 389 162
e 389 179
e 389 240
e 390 318
e 391 2
e 391 61
e 391 109
e 391 126
e 391 159
e 391 218
e 391 232
e 391 276
e 391 289
e 392 33
e 392 312
e 393 170
e 393 184
e 395 165
e 396 160
e 396 244
e 397 140
e 397 165
e 397 202
e 397 218
e 397 230
e 397 244
e 397 269
e 397 306
e 397 365
e 398 15
e 398 98
e 398 117
e 398 165
e 398 202
e 398 244
e 398 274
e 398 285
e 398 356
e 398 397
e 400 44
e 400 55
e 400 95
e 400 147
e 400 150
e 400 153
e 400 161
e 400 165
e 400 202
e 400 218
e 400 244
e 400 262
e 400 285
e 400 345
e 400 367
e 401 61
e 401 67
e 401 321
e 402 61
e 403 165
e 405 42
e 405 87
e 405 112
e 405 203
e 405 260
e 405 267
e 405 293
e 405 330
e 406 8
e 406 61
e 406 249
e 408 32
e 408 35
e 408 69
e 408 152
e 408 222
e 408 300
e 408 368
e 408 369
e 410 46
e 410 147
e 410 152
e 410 171
e 410 218
e 410 222
e 410 267
e 410 330
e 410 357
e 410 361
e 410 367
e 410 368
e 410 378
e 410 385
e 411 4
e 412 159
e 413 269
e 414 78
e 415 108
e 415 117
e 415 165
e 415 202
e 415 244
e 415 285
e 415 380
e 415 398
e 416 11
e 416 13
e 416 17
e 416 25
e 416 30
e 416 34
e 416 46
e 416 47
e 416 91
e 416 108
e 416 147
e 416 150
e 416 152
e 416 165
e 416 171
e 416 183
e 416 199
e 416 216
e 416 218
e 416 219
e 416 222
e 416 244
e 416 247
e 416 267
e 416 285
e 416 297
e 416 330
e 416 357
e 416 361
e 416 367
e 416 371
e 416 378
e 416 409
e 416 410
e 417 330
e 418 26
e 418 150
e 419 150
e 420 211
e 420 357
e 420 385
e 421 244
e 422 10
e 422 211
e 422 310
e 422 317
e 422 321
e 422 344
e 423 71
e 423 321
e 424 44
e 424 61
e 424 109
e 424 202
e 424 218
e 424 232
e 424 244
e 424 276
e 424 289
e 424 391
e 424 397
e 425 50
e 425 152
e 425 155
e 425 183
e 425 203
e 425 348
e 426 102
e 426 137
e 426 244
e 426 363
e 427 271
e 427 345
e 428 61
e 428 276
e 429 16
e 430 361
e 431 159
e 431 215
e 432 239
e 432 286
e 433 25
e 433 57
e 433 227
e 433 292
e 434 188
e 434 416
e 436 165
e 437 152
e 438 202
e 440 165
e 441 61
e 442 297
e 443 211
e 443 276
e 445 2
e 445 17
e 445 61
e 445 108
e 445 151
e 445 184
e 445 210
e 445 211
e 445 259
e 445 276
e 445 310
e 446 378
e 447 1
e 447 2
e 447 61
e 447 86
e 447 111
e 447 119
e 447 150
e 447 151
e 447 152
e 447 160
e 447 211
e 447 259
e 447 276
e 447 435
e 447 445
e 448 244
e 448 370
e 449 2
e 450 35
e 450 323
e 451 19
e 451 209
e 451 384
e 452 1
e 452 28
e 452 35
e 452 36
e 452 40
e 452 42
e 452 44
e 452 46
e 452 50
e 452 51
e 452 52
e 452 58
e 452 61
e 452 64
e 452 77
e 452 84
e 452 95
e 452 96
e 452 114
e 452 123
e 452 143
e 452 150
e 452 152
e 452 154
e 452 155
e 452 158
e 452 159
e 452 160
e 452 161
e 452 163
e 452 165
e 452 175
e 452 181
e 452 182
e 452 183
e 452 189
e 452 197
e 452 199
e 452 202
e 452 203
e 452 211
e 452 244
e 452 259
e 452 262
e 452 267
e 452 272
e 452 277
e 452 280
e 452 285
e 452 286
e 452 297
e 452 314
e 452 320
e 452 340
e 452 345
e 452 347
e 452 348
e 452 350
e 452 353
e 452 354
e 452 358
e 452 361
e 452 365
e 452 368
e 452 372
e 452 380
e 452 381
e 452 387
e 452 394
e 452 396
e 452 400
e 452 405
e 452 416
e 452 419
e 452 425
e 452 444
e 452 447
e 453 309
e 456 452
e 457 4
e 457 9
e 457 196
e 457 202
e 457 244
e 457 411
e 458 202
e 459 244
e 460 150
e 461 211
e 462 61
e 462 170
e 462 286
e 462 316
e 462 365
e 463 202
e 464 146
e 464 152
e 464 218
e 464 267
e 465 15
e 465 68
e 466 267
e 466 371
e 466 416
e 467 165
e 468 107
e 468 244
e 469 321
e 469 429
e 470 244
e 471 101
e 471 244
e 472 112
e 472 347
e 473 38
e 473 61
e 473 234
e 474 202
e 475 95
e 475 244
e 475 365
e 476 90
e 476 285
e 476 452
e 477 382
e 478 416
e 478 434
e 479 102
e 479 137
e 479 244
e 479 363
e 479 426
e 480 115
e 480 132
e 480 161
e 480 259
e 480 264
e 480 285
e 480 297
e 480 452
e 481 202
e 482 61
e 482 246
e 482 276
e 483 61
e 483 218
e 483 246
e 483 276
e 483 286
e 483 319
e 483 482
e 484 202
e 485 1
e 485 35
e 485 85
e 485 86
e 485 99
e 485 119
e 485 135
e 485 164
e 485 178
e 485 335
e 487 15
e 487 68
e 487 159
e 487 465
e 488 254
e 489 95
e 489 452
e 491 64
e 491 114
e 491 189
e 491 277
e 491 285
e 491 314
e 491 353
e 491 381
e 491 387
e 491 452
e 491 489
e 492 20
e 492 25
e 492 44
e 492 57
e 492 62
e 492 70
e 492 73
e 492 147
e 492 150
e 492 152
e 492 165
e 492 167
e 492 202
e 492 207
e 492 227
e 492 230
e 492 244
e 492 251
e 492 255
e 492 285
e 492 292
e 492 325
e 492 375
e 492 376
e 492 397
e 492 398
e 492 400
e 492 416
e 492 433
e 492 452
e 492 454
e 492 486
e 493 452
e 494 285
e 495 118
e 495 150
e 496 17
e 496 34
e 496 46
e 496 82
e 496 97
e 496 108
e 496 142
e 496 147
e 496 148
e 496 150
e 496 152
e 496 161
e 496 165
e 496 171
e 496 188
e 496 202
e 496 218
e 496 219
e 496 222
e 496 267
e 496 285
e 496 297
e 496 330
e 496 357
e 496 361
e 496 367
e 496 378
e 496 385
e 496 400
e 496 405
e 496 410
e 496 416
e 496 492
e 497 1
e 497 35
e 497 61
e 497 115
e 497 132
e 497 218
e 497 244
e 497 259
e 497 264
e 497 276
e 497 447
e 497 452
e 497 480
e 498 3
e 498 17
e 498 49
e 498 53
e 498 78
e 498 150
e 498 152
e 498 165
e 498 202
e 498 204
e 498 207
e 498 262
e 498 285
e 498 336
e 498 361
e 498 367
e 498 400
e 498 439
e 498 455
e 498 496
e 499 202
e 500 343
e 501 161
e 501 211
e 501 452
e 502 50
e 502 152
e 502 155
e 502 183
e 502 203
e 502 348
e 502 425
e 502 452
e 503 452
e 504 61
e 504 402
e 505 347
e 505 472
e 506 149
e 506 218
e 506 492
e 507 162
e 507 179
e 507 240
e 507 389
e 508 15
e 508 244
e 508 269
e 508 356
e 508 398
e 508 413
e 509 285
e 510 17
e 510 19
e 510 24
e 510 44
e 510 61
e 510 74
e 510 148
e 510 150
e 510 152
e 510 159
e 510 161
e 510 165
e 510 208
e 510 209
e 510 211
e 510 218
e 510 244
e 510 259
e 510 276
e 510 285
e 510 299
e 510 305
e 510 340
e 510 368
e 510 376
e 510 384
e 510 391
e 510 424
e 510 447
e 510 451
e 510 452
e 510 492
e 510 497
e 511 38
e 511 234
e 511 473
e 512 44
e 512 176
e 512 177
e 512 482
e 513 339
e 513 407
e 514 46
e 515 400
e 516 211
e 516 307
e 517 11
e 517 49
e 517 76
e 517 78
e 517 83
e 517 219
e 517 222
e 517 349
e 517 368
e 517 416
e 518 79
e 518 106
e 519 70
e 519 461
e 521 31
e 521 61
e 521 170
e 521 274
e 521 286
e 521 462
e 522 393
e 523 424
e 524 13
e 524 416
e 525 61
e 525 194
e 525 424
e 525 441
e 526 13
e 526 42
e 526 44
e 526 61
e 526 65
e 526 87
e 526 114
e 526 122
e 526 150
e 526 151
e 526 152
e 526 154
e 526 161
e 526 171
e 526 202
e 526 203
e 526 204
e 526 208
e 526 218
e 526 222
e 526 244
e 526 259
e 526 267
e 526 285
e 526 357
e 526 368
e 526 400
e 526 405
e 526 410
e 526 416
e 526 445
e 526 447
e 526 452
e 526 489
e 526 491
e 526 496
e 526 524
e 527 271
e 527 345
e 527 427
e 527 452
e 528 5
e 528 25
e 528 27
e 528 35
e 528 44
e 528 56
e 528 57
e 528 88
e 528 99
e 528 108
e 528 114
e 528 123
e 528 125
e 528 136
e 528 147
e 528 150
e 528 156
e 528 165
e 528 190
e 528 202
e 528 203
e 528 218
e 528 221
e 528 227
e 528 233
e 528 244
e 528 270
e 528 276
e 528 282
e 528 285
e 528 292
e 528 303
e 528 329
e 528 338
e 528 345
e 528 361
e 528 367
e 528 376
e 528 380
e 528 398
e 528 400
e 528 432
e 528 433
e 528 452
e 528 490
e 528 492
e 528 496
e 528 498
e 528 510
e 528 526
e 529 244
e 530 128
e 530 259
e 531 19
e 532 397
e 532 424
e 532 452
e 533 150
e 533 207
e 533 376
e 533 492
e 533 528
e 534 49
e 535 452
e 536 147
e 537 259
e 537 445
e 538 61
e 538 62
e 538 186
e 538 194
e 538 259
e 538 276
e 538 365
e 538 391
e 538 397
e 538 424
e 538 443
e 538 473
e 538 510
e 538 512
e 538 526
e 539 202
e 540 202
e 541 61
e 541 285
e 541 361
e 541 424
e 541 496
e 541 498
e 541 528
e 542 102
e 542 137
e 542 244
e 542 363
e 542 426
e 542 479
e 543 492
e 544 452
e 545 64
e 545 114
e 545 189
e 545 214
e 545 277
e 545 285
e 545 314
e 545 353
e 545 381
e 545 387
e 545 452
e 545 491
e 546 150
e 546 326
e 547 285
e 548 347
e 548 472
e 548 505
e 549 1
e 549 13
e 549 17
e 549 28
e 549 44
e 549 64
e 549 89
e 549 99
e 549 114
e 549 123
e 549 125
e 549 147
e 549 150
e 549 152
e 549 161
e 549 165
e 549 188
e 549 189
e 549 202
e 549 206
e 549 208
e 549 210
e 549 211
e 549 244
e 549 257
e 549 277
e 549 285
e 549 314
e 549 322
e 549 329
e 549 353
e 549 361
e 549 368
e 549 380
e 549 381
e 549 387
e 549 388
e 549 398
e 549 400
e 549 404
e 549 416
e 549 434
e 549 447
e 549 452
e 549 478
e 549 491
e 549 492
e 549 496
e 549 498
e 549 510
e 549 524
e 549 526
e 549 528
e 549 541
e 549 545
e 550 285
e 551 146
e 551 447
e 551 464
e 551 526
e 552 165
e 553 46
e 553 104
e 553 192
e 553 330
e 554 102
e 554 137
e 554 244
e 554 363
e 554 426
e 554 479
e 554 542
e 555 1
e 555 30
e 555 83
e 555 113
e 555 147
e 555 150
e 555 152
e 555 161
e 555 165
e 555 171
e 555 173
e 555 202
e 555 218
e 555 222
e 555 244
e 555 259
e 555 267
e 555 285
e 555 297
e 555 341
e 555 354
e 555 357
e 555 361
e 555 367
e 555 398
e 555 400
e 555 410
e 555 416
e 555 452
e 555 464
e 555 480
e 555 492
e 555 496
e 555 498
e 555 517
e 555 526
e 555 528
e 555 541
e 555 549
e 556 452
e 557 92
e 558 15
e 558 244
e 558 356
e 558 398
e 558 508
e 559 202
e 560 32
e 560 35
e 560 69
e 560 152
e 560 222
e 560 300
e 560 368
e 560 369
e 560 408
e 561 44
e 561 244
e 561 528
